Route #1: 0 52 15 20 37 42 23 49 31 39 12 26 0
Route #2: 0 36 21 6 32 50 25 10 0
Route #3: 0 46 27 13 5 47 43 9 0
Route #4: 0 17 44 16 41 22 1 33 51 0
Route #5: 0 40 35 19 54 45 30 28 0
Route #6: 0 2 3 24 18 38 11 8 0
Route #7: 0 4 48 29 34 14 53 7 0
Cost 973:
